136
0 109 30 11 36 123 79 35 88 84 
27 10 61 91 7 28 26 56 8 117 
9 78 4 112 73 55 97 98 94 68 
42 83 17 96 22 134 128 85 46 75 
93 89 113 121 18 103 126 133 131 37 
129 120 31 52 90 64 77 16 115 71 
105 33 39 58 70 101 63 25 32 57 
50 74 47 53 118 29 66 81 108 41 
43 104 19 135 72 124 102 15 20 40 
132 127 87 14 65 13 44 114 111 62 
107 12 51 6 95 130 45 24 48 67 
125 49 99 59 54 82 80 106 2 119 
92 122 116 5 60 38 21 100 3 86 
34 23 76 69 110 1 
